(declare-fun Constructed_Argument_t () String)
(declare-fun CreateAsClass () Bool)
(declare-fun Constructed_Argument () Real)
(declare-fun ExpandObjSwitcher () Real)
(declare-fun CreateAsClass_2 () Bool)
(declare-fun CreateAsClass_3 () Bool)
(assert (= Constructed_Argument_t "number"))
(assert CreateAsClass)
(assert (not (= Constructed_Argument 0.0)))
(assert (= ExpandObjSwitcher 5.0))
(assert (not CreateAsClass_2))
(assert CreateAsClass_3)
(check-sat)
